(set-info :smt-lib-version 2.6)
(set-info :category "crafted")
(set-logic QF_FFA)
(define-sort FF0 () (_ FiniteField 52435875175126190479447740508185965837690552500527637822603658699938581184513))
(declare-fun _109_alt () FF0)
(declare-fun _108_alt () FF0)
(declare-fun _13_alt () FF0)
(declare-fun _107_alt () FF0)
(declare-fun _84_alt () FF0)
(declare-fun _83_alt () FF0)
(declare-fun _106_alt () FF0)
(declare-fun _86_alt () FF0)
(declare-fun _105_alt () FF0)
(declare-fun _91_alt () FF0)
(declare-fun _90_alt () FF0)
(declare-fun _104_alt () FF0)
(declare-fun _97_alt () FF0)
(declare-fun _36_alt () FF0)
(declare-fun _103_alt () FF0)
(declare-fun _62_alt () FF0)
(declare-fun _102_alt () FF0)
(declare-fun _4_alt () FF0)
(declare-fun _101_alt () FF0)
(declare-fun _99_alt () FF0)
(declare-fun _100_alt () FF0)
(declare-fun _77_alt () FF0)
(declare-fun _76_alt () FF0)
(declare-fun _48_alt () FF0)
(declare-fun _32_alt () FF0)
(declare-fun _30_alt () FF0)
(declare-fun _96_alt () FF0)
(declare-fun _95_alt () FF0)
(declare-fun _35_alt () FF0)
(declare-fun _94_alt () FF0)
(declare-fun _54_alt () FF0)
(declare-fun _93_alt () FF0)
(declare-fun _79_alt () FF0)
(declare-fun _72_alt () FF0)
(declare-fun _9_alt () FF0)
(declare-fun _56_alt () FF0)
(declare-fun _19_alt () FF0)
(declare-fun _57_alt () FF0)
(declare-fun _63_alt () FF0)
(declare-fun _71_alt () FF0)
(declare-fun _70_alt () FF0)
(declare-fun _2_alt () FF0)
(declare-fun _69_alt () FF0)
(declare-fun _68_alt () FF0)
(declare-fun _67_alt () FF0)
(declare-fun _66_alt () FF0)
(declare-fun _61_alt () FF0)
(declare-fun _7_alt () FF0)
(declare-fun _60_alt () FF0)
(declare-fun _16_alt () FF0)
(declare-fun _59_alt () FF0)
(declare-fun _17_alt () FF0)
(declare-fun _0_alt () FF0)
(declare-fun _53_alt () FF0)
(declare-fun _52_alt () FF0)
(declare-fun _18_alt () FF0)
(declare-fun _51_alt () FF0)
(declare-fun _5_alt () FF0)
(declare-fun _50_alt () FF0)
(declare-fun _49_alt () FF0)
(declare-fun _47_alt () FF0)
(declare-fun _46_alt () FF0)
(declare-fun _45_alt () FF0)
(declare-fun _44_alt () FF0)
(declare-fun _43_alt () FF0)
(declare-fun _42_alt () FF0)
(declare-fun _1_alt () FF0)
(declare-fun _41_alt () FF0)
(declare-fun _40_alt () FF0)
(declare-fun _39_alt () FF0)
(declare-fun _38_alt () FF0)
(declare-fun _34_alt () FF0)
(declare-fun _6_alt () FF0)
(declare-fun _33_alt () FF0)
(declare-fun _31_alt () FF0)
(declare-fun _29_alt () FF0)
(declare-fun _28_alt () FF0)
(declare-fun _27_alt () FF0)
(declare-fun _26_alt () FF0)
(declare-fun _25_alt () FF0)
(declare-fun _24_alt () FF0)
(declare-fun _23_alt () FF0)
(declare-fun _3_alt () FF0)
(declare-fun _22_alt () FF0)
(declare-fun _21_alt () FF0)
(declare-fun _20_alt () FF0)
(declare-fun _15_alt () FF0)
(declare-fun _14_alt () FF0)
(declare-fun _11_alt () FF0)
(declare-fun _109 () FF0)
(declare-fun _108 () FF0)
(declare-fun _13 () FF0)
(declare-fun _107 () FF0)
(declare-fun _84 () FF0)
(declare-fun _83 () FF0)
(declare-fun _106 () FF0)
(declare-fun _86 () FF0)
(declare-fun _105 () FF0)
(declare-fun _91 () FF0)
(declare-fun _90 () FF0)
(declare-fun _104 () FF0)
(declare-fun _97 () FF0)
(declare-fun _36 () FF0)
(declare-fun _103 () FF0)
(declare-fun _62 () FF0)
(declare-fun _102 () FF0)
(declare-fun _4 () FF0)
(declare-fun _101 () FF0)
(declare-fun _99 () FF0)
(declare-fun _100 () FF0)
(declare-fun _77 () FF0)
(declare-fun _76 () FF0)
(declare-fun _48 () FF0)
(declare-fun _32 () FF0)
(declare-fun _30 () FF0)
(declare-fun _96 () FF0)
(declare-fun _95 () FF0)
(declare-fun _35 () FF0)
(declare-fun _94 () FF0)
(declare-fun _54 () FF0)
(declare-fun _93 () FF0)
(declare-fun _79 () FF0)
(declare-fun _72 () FF0)
(declare-fun _9 () FF0)
(declare-fun _56 () FF0)
(declare-fun _19 () FF0)
(declare-fun _57 () FF0)
(declare-fun _63 () FF0)
(declare-fun _71 () FF0)
(declare-fun _70 () FF0)
(declare-fun _2 () FF0)
(declare-fun _69 () FF0)
(declare-fun _68 () FF0)
(declare-fun _67 () FF0)
(declare-fun _66 () FF0)
(declare-fun _61 () FF0)
(declare-fun _7 () FF0)
(declare-fun _60 () FF0)
(declare-fun _16 () FF0)
(declare-fun _59 () FF0)
(declare-fun _17 () FF0)
(declare-fun _0 () FF0)
(declare-fun _53 () FF0)
(declare-fun _52 () FF0)
(declare-fun _18 () FF0)
(declare-fun _51 () FF0)
(declare-fun _5 () FF0)
(declare-fun _50 () FF0)
(declare-fun _49 () FF0)
(declare-fun _47 () FF0)
(declare-fun _46 () FF0)
(declare-fun _45 () FF0)
(declare-fun _44 () FF0)
(declare-fun _43 () FF0)
(declare-fun _42 () FF0)
(declare-fun _1 () FF0)
(declare-fun _41 () FF0)
(declare-fun _40 () FF0)
(declare-fun _39 () FF0)
(declare-fun _38 () FF0)
(declare-fun _34 () FF0)
(declare-fun _6 () FF0)
(declare-fun _33 () FF0)
(declare-fun _31 () FF0)
(declare-fun _29 () FF0)
(declare-fun _28 () FF0)
(declare-fun _27 () FF0)
(declare-fun _26 () FF0)
(declare-fun _25 () FF0)
(declare-fun _24 () FF0)
(declare-fun _23 () FF0)
(declare-fun _3 () FF0)
(declare-fun _22 () FF0)
(declare-fun _21 () FF0)
(declare-fun _20 () FF0)
(declare-fun _15 () FF0)
(declare-fun _14 () FF0)
(declare-fun _11 () FF0)
(declare-fun out_alt () FF0)
(declare-fun out () FF0)
(assert 
  (let ((let0 (as ff52435875175126190479447740508185965837690552500527637822603658699938581184512 FF0)))
  (let ((let1 _109_alt))
  (let ((let2 (ff.mul let1 let0)))
  (let ((let3 _108_alt))
  (let ((let4 _13_alt))
  (let ((let5 (ff.add let4 let3 let2)))
  (let ((let6 (ff.mul let3 let4)))
  (let ((let7 (= let6 let5)))
  (let ((let8 (ff.mul let3 let0)))
  (let ((let9 _107_alt))
  (let ((let10 _84_alt))
  (let ((let11 _83_alt))
  (let ((let12 (ff.add let11 let10 let9 let8)))
  (let ((let13 (ff.add let11 let10)))
  (let ((let14 (ff.mul let9 let13)))
  (let ((let15 (= let14 let12)))
  (let ((let16 (ff.mul let9 let0)))
  (let ((let17 _106_alt))
  (let ((let18 _86_alt))
  (let ((let19 (ff.add let18 let17 let16)))
  (let ((let20 (ff.mul let17 let18)))
  (let ((let21 (= let20 let19)))
  (let ((let22 (ff.mul let17 let0)))
  (let ((let23 _105_alt))
  (let ((let24 _91_alt))
  (let ((let25 _90_alt))
  (let ((let26 (ff.add let25 let24 let23 let22)))
  (let ((let27 (ff.add let25 let24)))
  (let ((let28 (ff.mul let23 let27)))
  (let ((let29 (= let28 let26)))
  (let ((let30 (ff.mul let23 let0)))
  (let ((let31 _104_alt))
  (let ((let32 _97_alt))
  (let ((let33 (ff.add let32 let31 let30)))
  (let ((let34 (ff.mul let31 let32)))
  (let ((let35 (= let34 let33)))
  (let ((let36 (as ff1 FF0)))
  (let ((let37 _36_alt))
  (let ((let38 (ff.mul let37 let0)))
  (let ((let39 (ff.add let38 let36)))
  (let ((let40 _103_alt))
  (let ((let41 (ff.mul let40 let39)))
  (let ((let42 (= let41 let31)))
  (let ((let43 _62_alt))
  (let ((let44 (ff.mul let43 let0)))
  (let ((let45 (ff.add let44 let36)))
  (let ((let46 _102_alt))
  (let ((let47 (ff.mul let46 let45)))
  (let ((let48 (= let47 let40)))
  (let ((let49 _4_alt))
  (let ((let50 _101_alt))
  (let ((let51 (ff.mul let50 let49)))
  (let ((let52 (= let51 let46)))
  (let ((let53 _99_alt))
  (let ((let54 _100_alt))
  (let ((let55 (ff.mul let54 let53)))
  (let ((let56 (= let55 let50)))
  (let ((let57 _77_alt))
  (let ((let58 _76_alt))
  (let ((let59 (ff.add let58 let57)))
  (let ((let60 _48_alt))
  (let ((let61 (ff.mul let60 let0)))
  (let ((let62 (ff.add let61 let36)))
  (let ((let63 (ff.mul let62 let59)))
  (let ((let64 (= let63 let54)))
  (let ((let65 (ff.mul let53 let0)))
  (let ((let66 _32_alt))
  (let ((let67 (ff.mul let66 let0)))
  (let ((let68 _30_alt))
  (let ((let69 (ff.add let68 let67 let65 let36)))
  (let ((let70 (ff.add let67 let36)))
  (let ((let71 (ff.mul let70 let68)))
  (let ((let72 (= let71 let69)))
  (let ((let73 (ff.mul let32 let0)))
  (let ((let74 _96_alt))
  (let ((let75 (ff.add let60 let74 let73)))
  (let ((let76 (ff.mul let74 let60)))
  (let ((let77 (= let76 let75)))
  (let ((let78 (ff.mul let74 let0)))
  (let ((let79 _95_alt))
  (let ((let80 _35_alt))
  (let ((let81 (ff.add let80 let79 let78)))
  (let ((let82 (ff.mul let79 let80)))
  (let ((let83 (= let82 let81)))
  (let ((let84 (ff.mul let79 let0)))
  (let ((let85 _94_alt))
  (let ((let86 _54_alt))
  (let ((let87 (ff.mul let86 let0)))
  (let ((let88 (ff.add let87 let85 let84 let36)))
  (let ((let89 (ff.add let87 let36)))
  (let ((let90 (ff.mul let85 let89)))
  (let ((let91 (= let90 let88)))
  (let ((let92 (ff.mul let85 let0)))
  (let ((let93 _93_alt))
  (let ((let94 _79_alt))
  (let ((let95 (ff.add let94 let93 let92)))
  (let ((let96 (ff.mul let93 let94)))
  (let ((let97 (= let96 let95)))
  (let ((let98 (ff.mul let93 let0)))
  (let ((let99 (ff.add let86 let58 let57 let98)))
  (let ((let100 (ff.mul let86 let59)))
  (let ((let101 (= let100 let99)))
  (let ((let102 _72_alt))
  (let ((let103 (ff.mul let102 let0)))
  (let ((let104 (ff.add let103 let36)))
  (let ((let105 (ff.mul let104 let66)))
  (let ((let106 (= let105 let24)))
  (let ((let107 (ff.mul let102 let43)))
  (let ((let108 (= let107 let25)))
  (let ((let109 (as ff2 FF0)))
  (let ((let110 (ff.mul let18 let0)))
  (let ((let111 _9_alt))
  (let ((let112 (ff.mul let111 let0)))
  (let ((let113 (ff.add let112 let38 let110 let109)))
  (let ((let114 (ff.add let112 let36)))
  (let ((let115 (ff.mul let114 let39)))
  (let ((let116 (= let115 let113)))
  (let ((let117 _56_alt))
  (let ((let118 (ff.mul let94 let0)))
  (let ((let119 (ff.add let118 let36)))
  (let ((let120 (ff.mul let119 let117)))
  (let ((let121 (= let120 let10)))
  (let ((let122 (ff.mul let94 let102)))
  (let ((let123 (= let122 let11)))
  (let ((let124 _19_alt))
  (let ((let125 (ff.add let124 let58 let57 let118)))
  (let ((let126 (ff.mul let124 let59)))
  (let ((let127 (= let126 let125)))
  (let ((let128 _57_alt))
  (let ((let129 (ff.mul let128 let0)))
  (let ((let130 (ff.add let129 let36)))
  (let ((let131 (ff.mul let104 let130)))
  (let ((let132 (= let131 let57)))
  (let ((let133 _63_alt))
  (let ((let134 (ff.mul let133 let0)))
  (let ((let135 (ff.add let134 let36)))
  (let ((let136 (ff.mul let102 let135)))
  (let ((let137 (= let136 let58)))
  (let ((let138 _71_alt))
  (let ((let139 (ff.mul let138 let130)))
  (let ((let140 (= let139 let102)))
  (let ((let141 _70_alt))
  (let ((let142 (ff.mul let141 let135)))
  (let ((let143 (= let142 let138)))
  (let ((let144 _2_alt))
  (let ((let145 _69_alt))
  (let ((let146 (ff.mul let145 let144)))
  (let ((let147 (= let146 let141)))
  (let ((let148 _68_alt))
  (let ((let149 (ff.mul let148 let62)))
  (let ((let150 (= let149 let145)))
  (let ((let151 _67_alt))
  (let ((let152 (ff.mul let151 let89)))
  (let ((let153 (= let152 let148)))
  (let ((let154 _66_alt))
  (let ((let155 (ff.mul let154 let39)))
  (let ((let156 (= let155 let151)))
  (let ((let157 (ff.mul let62 let117)))
  (let ((let158 (= let157 let154)))
  (let ((let159 (ff.add let111 let43 let0)))
  (let ((let160 (ff.mul let159 let159)))
  (let ((let161 (= let160 let133)))
  (let ((let162 _61_alt))
  (let ((let163 _7_alt))
  (let ((let164 (ff.add let163 let162 let44)))
  (let ((let165 (ff.mul let162 let163)))
  (let ((let166 (= let165 let164)))
  (let ((let167 (ff.mul let162 let0)))
  (let ((let168 _60_alt))
  (let ((let169 _16_alt))
  (let ((let170 (ff.add let169 let168 let167)))
  (let ((let171 (ff.mul let168 let169)))
  (let ((let172 (= let171 let170)))
  (let ((let173 (ff.mul let168 let0)))
  (let ((let174 _59_alt))
  (let ((let175 (ff.add let129 let174 let173 let36)))
  (let ((let176 (ff.mul let174 let130)))
  (let ((let177 (= let176 let175)))
  (let ((let178 (ff.mul let174 let0)))
  (let ((let179 _17_alt))
  (let ((let180 (ff.add let144 let179 let178)))
  (let ((let181 (ff.mul let179 let144)))
  (let ((let182 (= let181 let180)))
  (let ((let183 (ff.add let49 let86 let0)))
  (let ((let184 (ff.mul let183 let183)))
  (let ((let185 (= let184 let128)))
  (let ((let186 (ff.mul let117 let0)))
  (let ((let187 _0_alt))
  (let ((let188 (ff.add let187 let87 let186 let36)))
  (let ((let189 (ff.mul let187 let89)))
  (let ((let190 (= let189 let188)))
  (let ((let191 _53_alt))
  (let ((let192 (ff.add let169 let191 let87)))
  (let ((let193 (ff.mul let191 let169)))
  (let ((let194 (= let193 let192)))
  (let ((let195 (ff.mul let191 let0)))
  (let ((let196 _52_alt))
  (let ((let197 _18_alt))
  (let ((let198 (ff.add let197 let196 let195)))
  (let ((let199 (ff.mul let196 let197)))
  (let ((let200 (= let199 let198)))
  (let ((let201 (ff.mul let196 let0)))
  (let ((let202 _51_alt))
  (let ((let203 _5_alt))
  (let ((let204 (ff.add let203 let202 let201)))
  (let ((let205 (ff.mul let202 let203)))
  (let ((let206 (= let205 let204)))
  (let ((let207 (ff.mul let202 let0)))
  (let ((let208 _50_alt))
  (let ((let209 (ff.add let60 let208 let207)))
  (let ((let210 (ff.mul let208 let60)))
  (let ((let211 (= let210 let209)))
  (let ((let212 (ff.mul let208 let0)))
  (let ((let213 _49_alt))
  (let ((let214 (ff.add let179 let213 let212)))
  (let ((let215 (ff.mul let213 let179)))
  (let ((let216 (= let215 let214)))
  (let ((let217 (ff.mul let213 let0)))
  (let ((let218 (ff.add let49 let60 let217)))
  (let ((let219 (ff.mul let60 let49)))
  (let ((let220 (= let219 let218)))
  (let ((let221 _47_alt))
  (let ((let222 (ff.mul let221 let124)))
  (let ((let223 (= let222 let60)))
  (let ((let224 _46_alt))
  (let ((let225 (ff.mul let224 let114)))
  (let ((let226 (= let225 let221)))
  (let ((let227 _45_alt))
  (let ((let228 (ff.mul let227 let114)))
  (let ((let229 (= let228 let224)))
  (let ((let230 _44_alt))
  (let ((let231 (ff.mul let230 let66)))
  (let ((let232 (= let231 let227)))
  (let ((let233 _43_alt))
  (let ((let234 (ff.mul let233 let80)))
  (let ((let235 (= let234 let230)))
  (let ((let236 _42_alt))
  (let ((let237 (ff.mul let236 let124)))
  (let ((let238 (= let237 let233)))
  (let ((let239 _1_alt))
  (let ((let240 _41_alt))
  (let ((let241 (ff.mul let240 let239)))
  (let ((let242 (= let241 let236)))
  (let ((let243 _40_alt))
  (let ((let244 (ff.mul let243 let80)))
  (let ((let245 (= let244 let240)))
  (let ((let246 _39_alt))
  (let ((let247 (ff.mul let246 let239)))
  (let ((let248 (= let247 let243)))
  (let ((let249 _38_alt))
  (let ((let250 (ff.mul let249 let39)))
  (let ((let251 (= let250 let246)))
  (let ((let252 (ff.mul let111 let187)))
  (let ((let253 (= let252 let249)))
  (let ((let254 (ff.mul let203 let0)))
  (let ((let255 (ff.add let254 let80)))
  (let ((let256 (ff.mul let255 let255)))
  (let ((let257 (= let256 let37)))
  (let ((let258 (ff.mul let80 let0)))
  (let ((let259 _34_alt))
  (let ((let260 _6_alt))
  (let ((let261 (ff.add let260 let259 let258)))
  (let ((let262 (ff.mul let259 let260)))
  (let ((let263 (= let262 let261)))
  (let ((let264 (ff.mul let259 let0)))
  (let ((let265 _33_alt))
  (let ((let266 (ff.add let66 let265 let264)))
  (let ((let267 (ff.mul let265 let66)))
  (let ((let268 (= let267 let266)))
  (let ((let269 (ff.mul let265 let0)))
  (let ((let270 (ff.add let144 let68 let269)))
  (let ((let271 (ff.mul let68 let144)))
  (let ((let272 (= let271 let270)))
  (let ((let273 _31_alt))
  (let ((let274 (ff.mul let273 let68)))
  (let ((let275 (= let274 let66)))
  (let ((let276 (ff.mul let111 let197)))
  (let ((let277 (= let276 let273)))
  (let ((let278 (ff.mul let49 let0)))
  (let ((let279 (ff.add let278 let36)))
  (let ((let280 _29_alt))
  (let ((let281 (ff.mul let280 let279)))
  (let ((let282 (= let281 let68)))
  (let ((let283 _28_alt))
  (let ((let284 (ff.mul let283 let203)))
  (let ((let285 (= let284 let280)))
  (let ((let286 _27_alt))
  (let ((let287 (ff.mul let286 let260)))
  (let ((let288 (= let287 let283)))
  (let ((let289 _26_alt))
  (let ((let290 (ff.mul let289 let239)))
  (let ((let291 (= let290 let286)))
  (let ((let292 _25_alt))
  (let ((let293 (ff.mul let292 let169)))
  (let ((let294 (= let293 let289)))
  (let ((let295 _24_alt))
  (let ((let296 (ff.mul let295 let144)))
  (let ((let297 (= let296 let292)))
  (let ((let298 _23_alt))
  (let ((let299 (ff.mul let298 let187)))
  (let ((let300 (= let299 let295)))
  (let ((let301 _3_alt))
  (let ((let302 _22_alt))
  (let ((let303 (ff.mul let302 let301)))
  (let ((let304 (= let303 let298)))
  (let ((let305 _21_alt))
  (let ((let306 (ff.mul let305 let163)))
  (let ((let307 (= let306 let302)))
  (let ((let308 _20_alt))
  (let ((let309 (ff.mul let308 let279)))
  (let ((let310 (= let309 let305)))
  (let ((let311 (ff.mul let179 let203)))
  (let ((let312 (= let311 let308)))
  (let ((let313 (ff.mul let124 let0)))
  (let ((let314 (ff.mul let197 let0)))
  (let ((let315 (ff.add let163 let314 let313 let36)))
  (let ((let316 (ff.add let314 let36)))
  (let ((let317 (ff.mul let316 let163)))
  (let ((let318 (= let317 let315)))
  (let ((let319 (ff.mul let169 let0)))
  (let ((let320 (ff.add let319 let179 let314 let36)))
  (let ((let321 (ff.add let319 let36)))
  (let ((let322 (ff.mul let321 let179)))
  (let ((let323 (= let322 let320)))
  (let ((let324 (ff.mul let179 let0)))
  (let ((let325 (ff.mul let260 let0)))
  (let ((let326 (ff.add let301 let325 let324 let36)))
  (let ((let327 (ff.add let325 let36)))
  (let ((let328 (ff.mul let327 let301)))
  (let ((let329 (= let328 let326)))
  (let ((let330 _15_alt))
  (let ((let331 (ff.add let49 let330 let319)))
  (let ((let332 (ff.mul let330 let49)))
  (let ((let333 (= let332 let331)))
  (let ((let334 (ff.mul let330 let0)))
  (let ((let335 _14_alt))
  (let ((let336 (ff.add let187 let335 let334)))
  (let ((let337 (ff.mul let335 let187)))
  (let ((let338 (= let337 let336)))
  (let ((let339 (ff.mul let335 let0)))
  (let ((let340 (ff.add let239 let144 let339)))
  (let ((let341 (ff.mul let239 let144)))
  (let ((let342 (= let341 let340)))
  (let ((let343 (ff.mul let4 let0)))
  (let ((let344 _11_alt))
  (let ((let345 (ff.add let278 let344 let343 let36)))
  (let ((let346 (ff.mul let344 let279)))
  (let ((let347 (= let346 let345)))
  (let ((let348 (ff.add let301 let111 let0)))
  (let ((let349 (ff.mul let348 let348)))
  (let ((let350 (= let349 let344)))
  (let ((let351 (ff.mul let301 let163)))
  (let ((let352 (= let351 let111)))
  (let ((let353 (ff.mul let163 let163)))
  (let ((let354 (= let353 let163)))
  (let ((let355 (ff.mul let260 let260)))
  (let ((let356 (= let355 let260)))
  (let ((let357 (ff.mul let203 let203)))
  (let ((let358 (= let357 let203)))
  (let ((let359 (ff.mul let49 let49)))
  (let ((let360 (= let359 let49)))
  (let ((let361 (ff.mul let301 let301)))
  (let ((let362 (= let361 let301)))
  (let ((let363 (ff.mul let144 let144)))
  (let ((let364 (= let363 let144)))
  (let ((let365 (ff.mul let239 let239)))
  (let ((let366 (= let365 let239)))
  (let ((let367 (ff.mul let187 let187)))
  (let ((let368 (= let367 let187)))
  (let ((let369 (and let368 let366 let364 let362 let360 let358 let356 let354 let352 let350 let347 let342 let338 let333 let329 let323 let318 let312 let310 let307 let304 let300 let297 let294 let291 let288 let285 let282 let277 let275 let272 let268 let263 let257 let253 let251 let248 let245 let242 let238 let235 let232 let229 let226 let223 let220 let216 let211 let206 let200 let194 let190 let185 let182 let177 let172 let166 let161 let158 let156 let153 let150 let147 let143 let140 let137 let132 let127 let123 let121 let116 let108 let106 let101 let97 let91 let83 let77 let72 let64 let56 let52 let48 let42 let35 let29 let21 let15 let7)))
  (let ((let370 _109))
  (let ((let371 (ff.mul let370 let0)))
  (let ((let372 _108))
  (let ((let373 _13))
  (let ((let374 (ff.add let373 let372 let371)))
  (let ((let375 (ff.mul let372 let373)))
  (let ((let376 (= let375 let374)))
  (let ((let377 (ff.mul let372 let0)))
  (let ((let378 _107))
  (let ((let379 _84))
  (let ((let380 _83))
  (let ((let381 (ff.add let380 let379 let378 let377)))
  (let ((let382 (ff.add let380 let379)))
  (let ((let383 (ff.mul let378 let382)))
  (let ((let384 (= let383 let381)))
  (let ((let385 (ff.mul let378 let0)))
  (let ((let386 _106))
  (let ((let387 _86))
  (let ((let388 (ff.add let387 let386 let385)))
  (let ((let389 (ff.mul let386 let387)))
  (let ((let390 (= let389 let388)))
  (let ((let391 (ff.mul let386 let0)))
  (let ((let392 _105))
  (let ((let393 _91))
  (let ((let394 _90))
  (let ((let395 (ff.add let394 let393 let392 let391)))
  (let ((let396 (ff.add let394 let393)))
  (let ((let397 (ff.mul let392 let396)))
  (let ((let398 (= let397 let395)))
  (let ((let399 (ff.mul let392 let0)))
  (let ((let400 _104))
  (let ((let401 _97))
  (let ((let402 (ff.add let401 let400 let399)))
  (let ((let403 (ff.mul let400 let401)))
  (let ((let404 (= let403 let402)))
  (let ((let405 _36))
  (let ((let406 (ff.mul let405 let0)))
  (let ((let407 (ff.add let406 let36)))
  (let ((let408 _103))
  (let ((let409 (ff.mul let408 let407)))
  (let ((let410 (= let409 let400)))
  (let ((let411 _62))
  (let ((let412 (ff.mul let411 let0)))
  (let ((let413 (ff.add let412 let36)))
  (let ((let414 _102))
  (let ((let415 (ff.mul let414 let413)))
  (let ((let416 (= let415 let408)))
  (let ((let417 _4))
  (let ((let418 _101))
  (let ((let419 (ff.mul let418 let417)))
  (let ((let420 (= let419 let414)))
  (let ((let421 _99))
  (let ((let422 _100))
  (let ((let423 (ff.mul let422 let421)))
  (let ((let424 (= let423 let418)))
  (let ((let425 _77))
  (let ((let426 _76))
  (let ((let427 (ff.add let426 let425)))
  (let ((let428 _48))
  (let ((let429 (ff.mul let428 let0)))
  (let ((let430 (ff.add let429 let36)))
  (let ((let431 (ff.mul let430 let427)))
  (let ((let432 (= let431 let422)))
  (let ((let433 (ff.mul let421 let0)))
  (let ((let434 _32))
  (let ((let435 (ff.mul let434 let0)))
  (let ((let436 _30))
  (let ((let437 (ff.add let436 let435 let433 let36)))
  (let ((let438 (ff.add let435 let36)))
  (let ((let439 (ff.mul let438 let436)))
  (let ((let440 (= let439 let437)))
  (let ((let441 (ff.mul let401 let0)))
  (let ((let442 _96))
  (let ((let443 (ff.add let428 let442 let441)))
  (let ((let444 (ff.mul let442 let428)))
  (let ((let445 (= let444 let443)))
  (let ((let446 (ff.mul let442 let0)))
  (let ((let447 _95))
  (let ((let448 _35))
  (let ((let449 (ff.add let448 let447 let446)))
  (let ((let450 (ff.mul let447 let448)))
  (let ((let451 (= let450 let449)))
  (let ((let452 (ff.mul let447 let0)))
  (let ((let453 _94))
  (let ((let454 _54))
  (let ((let455 (ff.mul let454 let0)))
  (let ((let456 (ff.add let455 let453 let452 let36)))
  (let ((let457 (ff.add let455 let36)))
  (let ((let458 (ff.mul let453 let457)))
  (let ((let459 (= let458 let456)))
  (let ((let460 (ff.mul let453 let0)))
  (let ((let461 _93))
  (let ((let462 _79))
  (let ((let463 (ff.add let462 let461 let460)))
  (let ((let464 (ff.mul let461 let462)))
  (let ((let465 (= let464 let463)))
  (let ((let466 (ff.mul let461 let0)))
  (let ((let467 (ff.add let454 let426 let425 let466)))
  (let ((let468 (ff.mul let454 let427)))
  (let ((let469 (= let468 let467)))
  (let ((let470 _72))
  (let ((let471 (ff.mul let470 let0)))
  (let ((let472 (ff.add let471 let36)))
  (let ((let473 (ff.mul let472 let434)))
  (let ((let474 (= let473 let393)))
  (let ((let475 (ff.mul let470 let411)))
  (let ((let476 (= let475 let394)))
  (let ((let477 (ff.mul let387 let0)))
  (let ((let478 _9))
  (let ((let479 (ff.mul let478 let0)))
  (let ((let480 (ff.add let479 let406 let477 let109)))
  (let ((let481 (ff.add let479 let36)))
  (let ((let482 (ff.mul let481 let407)))
  (let ((let483 (= let482 let480)))
  (let ((let484 _56))
  (let ((let485 (ff.mul let462 let0)))
  (let ((let486 (ff.add let485 let36)))
  (let ((let487 (ff.mul let486 let484)))
  (let ((let488 (= let487 let379)))
  (let ((let489 (ff.mul let462 let470)))
  (let ((let490 (= let489 let380)))
  (let ((let491 _19))
  (let ((let492 (ff.add let491 let426 let425 let485)))
  (let ((let493 (ff.mul let491 let427)))
  (let ((let494 (= let493 let492)))
  (let ((let495 _57))
  (let ((let496 (ff.mul let495 let0)))
  (let ((let497 (ff.add let496 let36)))
  (let ((let498 (ff.mul let472 let497)))
  (let ((let499 (= let498 let425)))
  (let ((let500 _63))
  (let ((let501 (ff.mul let500 let0)))
  (let ((let502 (ff.add let501 let36)))
  (let ((let503 (ff.mul let470 let502)))
  (let ((let504 (= let503 let426)))
  (let ((let505 _71))
  (let ((let506 (ff.mul let505 let497)))
  (let ((let507 (= let506 let470)))
  (let ((let508 _70))
  (let ((let509 (ff.mul let508 let502)))
  (let ((let510 (= let509 let505)))
  (let ((let511 _2))
  (let ((let512 _69))
  (let ((let513 (ff.mul let512 let511)))
  (let ((let514 (= let513 let508)))
  (let ((let515 _68))
  (let ((let516 (ff.mul let515 let430)))
  (let ((let517 (= let516 let512)))
  (let ((let518 _67))
  (let ((let519 (ff.mul let518 let457)))
  (let ((let520 (= let519 let515)))
  (let ((let521 _66))
  (let ((let522 (ff.mul let521 let407)))
  (let ((let523 (= let522 let518)))
  (let ((let524 (ff.mul let430 let484)))
  (let ((let525 (= let524 let521)))
  (let ((let526 (ff.add let478 let411 let0)))
  (let ((let527 (ff.mul let526 let526)))
  (let ((let528 (= let527 let500)))
  (let ((let529 _61))
  (let ((let530 _7))
  (let ((let531 (ff.add let530 let529 let412)))
  (let ((let532 (ff.mul let529 let530)))
  (let ((let533 (= let532 let531)))
  (let ((let534 (ff.mul let529 let0)))
  (let ((let535 _60))
  (let ((let536 _16))
  (let ((let537 (ff.add let536 let535 let534)))
  (let ((let538 (ff.mul let535 let536)))
  (let ((let539 (= let538 let537)))
  (let ((let540 (ff.mul let535 let0)))
  (let ((let541 _59))
  (let ((let542 (ff.add let496 let541 let540 let36)))
  (let ((let543 (ff.mul let541 let497)))
  (let ((let544 (= let543 let542)))
  (let ((let545 (ff.mul let541 let0)))
  (let ((let546 _17))
  (let ((let547 (ff.add let511 let546 let545)))
  (let ((let548 (ff.mul let546 let511)))
  (let ((let549 (= let548 let547)))
  (let ((let550 (ff.add let417 let454 let0)))
  (let ((let551 (ff.mul let550 let550)))
  (let ((let552 (= let551 let495)))
  (let ((let553 (ff.mul let484 let0)))
  (let ((let554 _0))
  (let ((let555 (ff.add let554 let455 let553 let36)))
  (let ((let556 (ff.mul let554 let457)))
  (let ((let557 (= let556 let555)))
  (let ((let558 _53))
  (let ((let559 (ff.add let536 let558 let455)))
  (let ((let560 (ff.mul let558 let536)))
  (let ((let561 (= let560 let559)))
  (let ((let562 (ff.mul let558 let0)))
  (let ((let563 _52))
  (let ((let564 _18))
  (let ((let565 (ff.add let564 let563 let562)))
  (let ((let566 (ff.mul let563 let564)))
  (let ((let567 (= let566 let565)))
  (let ((let568 (ff.mul let563 let0)))
  (let ((let569 _51))
  (let ((let570 _5))
  (let ((let571 (ff.add let570 let569 let568)))
  (let ((let572 (ff.mul let569 let570)))
  (let ((let573 (= let572 let571)))
  (let ((let574 (ff.mul let569 let0)))
  (let ((let575 _50))
  (let ((let576 (ff.add let428 let575 let574)))
  (let ((let577 (ff.mul let575 let428)))
  (let ((let578 (= let577 let576)))
  (let ((let579 (ff.mul let575 let0)))
  (let ((let580 _49))
  (let ((let581 (ff.add let546 let580 let579)))
  (let ((let582 (ff.mul let580 let546)))
  (let ((let583 (= let582 let581)))
  (let ((let584 (ff.mul let580 let0)))
  (let ((let585 (ff.add let417 let428 let584)))
  (let ((let586 (ff.mul let428 let417)))
  (let ((let587 (= let586 let585)))
  (let ((let588 _47))
  (let ((let589 (ff.mul let588 let491)))
  (let ((let590 (= let589 let428)))
  (let ((let591 _46))
  (let ((let592 (ff.mul let591 let481)))
  (let ((let593 (= let592 let588)))
  (let ((let594 _45))
  (let ((let595 (ff.mul let594 let481)))
  (let ((let596 (= let595 let591)))
  (let ((let597 _44))
  (let ((let598 (ff.mul let597 let434)))
  (let ((let599 (= let598 let594)))
  (let ((let600 _43))
  (let ((let601 (ff.mul let600 let448)))
  (let ((let602 (= let601 let597)))
  (let ((let603 _42))
  (let ((let604 (ff.mul let603 let491)))
  (let ((let605 (= let604 let600)))
  (let ((let606 _1))
  (let ((let607 _41))
  (let ((let608 (ff.mul let607 let606)))
  (let ((let609 (= let608 let603)))
  (let ((let610 _40))
  (let ((let611 (ff.mul let610 let448)))
  (let ((let612 (= let611 let607)))
  (let ((let613 _39))
  (let ((let614 (ff.mul let613 let606)))
  (let ((let615 (= let614 let610)))
  (let ((let616 _38))
  (let ((let617 (ff.mul let616 let407)))
  (let ((let618 (= let617 let613)))
  (let ((let619 (ff.mul let478 let554)))
  (let ((let620 (= let619 let616)))
  (let ((let621 (ff.mul let570 let0)))
  (let ((let622 (ff.add let621 let448)))
  (let ((let623 (ff.mul let622 let622)))
  (let ((let624 (= let623 let405)))
  (let ((let625 (ff.mul let448 let0)))
  (let ((let626 _34))
  (let ((let627 _6))
  (let ((let628 (ff.add let627 let626 let625)))
  (let ((let629 (ff.mul let626 let627)))
  (let ((let630 (= let629 let628)))
  (let ((let631 (ff.mul let626 let0)))
  (let ((let632 _33))
  (let ((let633 (ff.add let434 let632 let631)))
  (let ((let634 (ff.mul let632 let434)))
  (let ((let635 (= let634 let633)))
  (let ((let636 (ff.mul let632 let0)))
  (let ((let637 (ff.add let511 let436 let636)))
  (let ((let638 (ff.mul let436 let511)))
  (let ((let639 (= let638 let637)))
  (let ((let640 _31))
  (let ((let641 (ff.mul let640 let436)))
  (let ((let642 (= let641 let434)))
  (let ((let643 (ff.mul let478 let564)))
  (let ((let644 (= let643 let640)))
  (let ((let645 (ff.mul let417 let0)))
  (let ((let646 (ff.add let645 let36)))
  (let ((let647 _29))
  (let ((let648 (ff.mul let647 let646)))
  (let ((let649 (= let648 let436)))
  (let ((let650 _28))
  (let ((let651 (ff.mul let650 let570)))
  (let ((let652 (= let651 let647)))
  (let ((let653 _27))
  (let ((let654 (ff.mul let653 let627)))
  (let ((let655 (= let654 let650)))
  (let ((let656 _26))
  (let ((let657 (ff.mul let656 let606)))
  (let ((let658 (= let657 let653)))
  (let ((let659 _25))
  (let ((let660 (ff.mul let659 let536)))
  (let ((let661 (= let660 let656)))
  (let ((let662 _24))
  (let ((let663 (ff.mul let662 let511)))
  (let ((let664 (= let663 let659)))
  (let ((let665 _23))
  (let ((let666 (ff.mul let665 let554)))
  (let ((let667 (= let666 let662)))
  (let ((let668 _3))
  (let ((let669 _22))
  (let ((let670 (ff.mul let669 let668)))
  (let ((let671 (= let670 let665)))
  (let ((let672 _21))
  (let ((let673 (ff.mul let672 let530)))
  (let ((let674 (= let673 let669)))
  (let ((let675 _20))
  (let ((let676 (ff.mul let675 let646)))
  (let ((let677 (= let676 let672)))
  (let ((let678 (ff.mul let546 let570)))
  (let ((let679 (= let678 let675)))
  (let ((let680 (ff.mul let491 let0)))
  (let ((let681 (ff.mul let564 let0)))
  (let ((let682 (ff.add let530 let681 let680 let36)))
  (let ((let683 (ff.add let681 let36)))
  (let ((let684 (ff.mul let683 let530)))
  (let ((let685 (= let684 let682)))
  (let ((let686 (ff.mul let536 let0)))
  (let ((let687 (ff.add let686 let546 let681 let36)))
  (let ((let688 (ff.add let686 let36)))
  (let ((let689 (ff.mul let688 let546)))
  (let ((let690 (= let689 let687)))
  (let ((let691 (ff.mul let546 let0)))
  (let ((let692 (ff.mul let627 let0)))
  (let ((let693 (ff.add let668 let692 let691 let36)))
  (let ((let694 (ff.add let692 let36)))
  (let ((let695 (ff.mul let694 let668)))
  (let ((let696 (= let695 let693)))
  (let ((let697 _15))
  (let ((let698 (ff.add let417 let697 let686)))
  (let ((let699 (ff.mul let697 let417)))
  (let ((let700 (= let699 let698)))
  (let ((let701 (ff.mul let697 let0)))
  (let ((let702 _14))
  (let ((let703 (ff.add let554 let702 let701)))
  (let ((let704 (ff.mul let702 let554)))
  (let ((let705 (= let704 let703)))
  (let ((let706 (ff.mul let702 let0)))
  (let ((let707 (ff.add let606 let511 let706)))
  (let ((let708 (ff.mul let606 let511)))
  (let ((let709 (= let708 let707)))
  (let ((let710 (ff.mul let373 let0)))
  (let ((let711 _11))
  (let ((let712 (ff.add let645 let711 let710 let36)))
  (let ((let713 (ff.mul let711 let646)))
  (let ((let714 (= let713 let712)))
  (let ((let715 (ff.add let668 let478 let0)))
  (let ((let716 (ff.mul let715 let715)))
  (let ((let717 (= let716 let711)))
  (let ((let718 (ff.mul let668 let530)))
  (let ((let719 (= let718 let478)))
  (let ((let720 (ff.mul let530 let530)))
  (let ((let721 (= let720 let530)))
  (let ((let722 (ff.mul let627 let627)))
  (let ((let723 (= let722 let627)))
  (let ((let724 (ff.mul let570 let570)))
  (let ((let725 (= let724 let570)))
  (let ((let726 (ff.mul let417 let417)))
  (let ((let727 (= let726 let417)))
  (let ((let728 (ff.mul let668 let668)))
  (let ((let729 (= let728 let668)))
  (let ((let730 (ff.mul let511 let511)))
  (let ((let731 (= let730 let511)))
  (let ((let732 (ff.mul let606 let606)))
  (let ((let733 (= let732 let606)))
  (let ((let734 (ff.mul let554 let554)))
  (let ((let735 (= let734 let554)))
  (let ((let736 (and let735 let733 let731 let729 let727 let725 let723 let721 let719 let717 let714 let709 let705 let700 let696 let690 let685 let679 let677 let674 let671 let667 let664 let661 let658 let655 let652 let649 let644 let642 let639 let635 let630 let624 let620 let618 let615 let612 let609 let605 let602 let599 let596 let593 let590 let587 let583 let578 let573 let567 let561 let557 let552 let549 let544 let539 let533 let528 let525 let523 let520 let517 let514 let510 let507 let504 let499 let494 let490 let488 let483 let476 let474 let469 let465 let459 let451 let445 let440 let432 let424 let420 let416 let410 let404 let398 let390 let384 let376)))
  (let ((let737 out_alt))
  (let ((let738 out))
  (let ((let739 (= let738 let737)))
  (let ((let740 (not let739)))
  (let ((let741 (= let668 let301)))
  (let ((let742 (= let530 let163)))
  (let ((let743 (= let570 let203)))
  (let ((let744 (= let511 let144)))
  (let ((let745 (= let606 let239)))
  (let ((let746 (= let554 let187)))
  (let ((let747 (= let627 let260)))
  (let ((let748 (= let417 let49)))
  (let ((let749 (and let748 let747 let746 let745 let744 let743 let742 let741)))
  (let ((let750 (and let749 let740 let736 let369)))
  let750
)))))))))))))))))))))))))))))))))))))))))))))))))))))))))))))))))))))))))))))))))))))))))))))))))))))))))))))))))))))))))))))))))))))))))))))))))))))))))))))))))))))))))))))))))))))))))))))))))))))))))))))))))))))))))))))))))))))))))))))))))))))))))))))))))))))))))))))))))))))))))))))))))))))))))))))))))))))))))))))))))))))))))))))))))))))))))))))))))))))))))))))))))))))))))))))))))))))))))))))))))))))))))))))))))))))))))))))))))))))))))))))))))))))))))))))))))))))))))))))))))))))))))))))))))))))))))))))))))))))))))))))))))))))))))))))))))))))))))))))))))))))))))))))))))))))))))))))))))))))))))))))))))))))))))))))))))))))))))))))))))))))))))))))))))))))))))))))))))))))))))))))))))))))))))))))))))))))))))))))))))))))))))))))))))))))))))))))))
)
(check-sat)
